p cnf 54 196
3 1 0
3 -2 0
-1 2 -3 0
-3 4 -5 0
3 -4 -5 0
-3 -4 5 0
3 4 5 0
-6 3 0
-6 -5 0
-3 5 6 0
7 1 -8 0
-7 -1 -8 0
7 -1 8 0
-7 1 8 0
8 -4 -9 0
-8 4 -9 0
8 4 9 0
-8 -4 9 0
3 -10 -11 0
-3 10 -11 0
3 10 11 0
-3 -10 11 0
13 11 0
13 12 0
-11 -12 -13 0
-14 -9 0
-14 13 0
9 -13 14 0
-15 -14 0
-15 -13 0
14 13 15 0
-6 -15 -16 0
6 15 -16 0
-6 15 16 0
6 -15 16 0
18 -12 0
18 -17 0
12 17 -18 0
-19 -16 0
-19 -18 0
16 18 19 0
21 -12 -22 0
-21 12 -22 0
21 12 22 0
-21 -12 22 0
-23 20 0
-23 -22 0
-20 22 23 0
-24 5 0
-24 -8 0
-5 8 24 0
24 -22 -25 0
-24 22 -25 0
24 22 25 0
-24 -22 25 0
-26 6 0
-26 -14 0
-6 14 26 0
27 25 0
27 26 0
-25 -26 -27 0
-23 -27 -28 0
23 27 -28 0
-23 27 28 0
23 -27 28 0
-17 -13 -29 0
17 13 -29 0
-17 13 29 0
17 -13 29 0
-12 30 -31 0
12 -30 -31 0
-12 -30 31 0
12 30 31 0
-11 -31 -32 0
11 31 -32 0
-11 31 32 0
11 -31 32 0
31 -32 -33 0
-31 32 -33 0
31 32 33 0
-31 -32 33 0
-29 33 -34 0
29 -33 -34 0
-29 -33 34 0
29 33 34 0
-35 24 0
-35 22 0
-24 -22 35 0
-36 -15 0
-36 -4 0
15 4 36 0
-37 -36 0
-37 31 0
36 -31 37 0
-38 37 0
-38 31 0
-37 -31 38 0
39 8 0
39 14 0
-8 -14 -39 0
-40 38 0
-40 -39 0
-38 39 40 0
41 35 0
41 40 0
-35 -40 -41 0
-34 41 -42 0
34 -41 -42 0
-34 -41 42 0
34 41 42 0
-43 28 0
-43 42 0
-28 -42 43 0
24 -5 -44 0
-24 5 -44 0
24 5 44 0
-24 -5 44 0
-45 -17 0
-45 36 0
17 -36 45 0
-46 44 0
-46 45 0
-44 -45 46 0
6 -3 -47 0
-6 3 -47 0
6 3 47 0
-6 -3 47 0
-12 -4 -48 0
12 4 -48 0
-12 4 48 0
12 -4 48 0
-49 48 0
-49 -7 0
-48 7 49 0
50 -47 0
50 -49 0
47 49 -50 0
51 -30 0
51 50 0
30 -50 -51 0
-46 51 -52 0
46 -51 -52 0
-46 -51 52 0
46 51 52 0
53 -43 0
53 -52 0
43 52 -53 0
54 -19 0
54 -53 0
19 53 -54 0
45 -43 0
-26 5 0
-9 49 20 0
-46 -6 20 0
8 51 -45 0
-38 19 -47 -53 11 0
19 28 -34 0
-35 -47 -28 0
-27 -15 0
10 16 -46 -29 38 0
-53 26 38 48 -29 0
17 41 9 -11 0
29 -42 0
-37 23 13 -9 -7 0
-22 -4 51 -42 14 0
-5 -30 -3 -54 20 0
50 18 7 41 0
43 35 -8 0
-23 26 -22 -34 0
-19 46 49 -44 -34 0
34 -38 -2 -31 -26 0
24 -33 49 -25 0
23 27 10 0
-38 29 2 54 52 -39 0
5 -34 0
41 15 22 40 0
-2 -4 0
-18 31 0
-54 -34 3 0
-50 2 -33 19 -32 48 0
-20 2 0
-41 4 47 43 39 -46 0
-7 -48 -27 47 -45 0
-13 -36 30 44 28 -27 0
-23 -44 0
-10 -7 21 20 -29 35 0
12 45 21 51 -46 0
13 -42 0
-35 -52 0
-23 -40 0
-1 -12 21 5 -43 40 0
7 -41 -37 0
48 -42 -43 -2 -12 -6 0
-31 -45 28 -5 -50 0
-45 11 37 54 0
54 0
